2 0 2 0
2 1 3 5
0 0 2 5
1 0 1 0
5 0 1 8
0 1 0 6
1 1 2 8
4 0 2 13
3 0 1 11
3 1 0 16
5 1 3 11
0 2 1 16
2 2 5 9
3 2 2 22
1 2 4 13
3 3 3 27
4 1 1 22
2 3 0 21
5 2 5 17
5 3 0 30
1 3 5 26
2 4 1 30
4 2 4 25
4 3 5 36
0 3 3 30
3 4 4 30
0 4 5 40
2 5 4 38
1 4 0 40
4 4 0 50
5 4 4 45
5 5 2 49
1 5 3 50
0 5 4 49
3 5 5 43
4 5 3 54

